#***********************************************************************************************************
#*                               Generated by cif2cell 2.0.0 2021-08-10 9:30                               *
#*              T. Bjorkman, Comp. Phys. Commun. 182, 1183-1186 (2011). Please cite generously.            *
#*                                                                                                         *
#*                                                None   ()                                                *
#* Kitano, A. et al., Physical Review, Serie 3. B - Condensed Matter (18,1978-) 64, 0452061-0452069 (2001) *
#***********************************************************************************************************

%BLOCK LATTICE_CART
ang    # angstrom units
   5.381000000000000   0.000000000000000   0.000000000000000
   0.000000000000000   5.381000000000000   0.000000000000000
   0.000000000000000   0.000000000000000   5.381000000000000
%ENDBLOCK LATTICE_CART

%BLOCK POSITIONS_FRAC
Si   0.000000000000000   0.000000000000000   0.000000000000000
Si   0.750000000000000   0.750000000000000   0.250000000000000
Si   0.500000000000000   0.000000000000000   0.500000000000000
Si   0.750000000000000   0.250000000000000   0.750000000000000
Si   0.000000000000000   0.500000000000000   0.500000000000000
Si   0.250000000000000   0.250000000000000   0.250000000000000
Si   0.250000000000000   0.750000000000000   0.750000000000000
Si   0.500000000000000   0.500000000000000   0.000000000000000
%ENDBLOCK POSITIONS_FRAC

# Commented out pseudopotential block for easy editing
#%BLOCK SPECIES_POT
# Si  Si_00.usp
#%ENDBLOCK SPECIES_POT

%BLOCK SYMMETRY_OPS
# Symm. op. 1
  1.000000000000000   0.000000000000000   0.000000000000000
  0.000000000000000   1.000000000000000   0.000000000000000
  0.000000000000000   0.000000000000000   1.000000000000000
  0.000000000000000   0.000000000000000   0.000000000000000
# Symm. op. 2
  1.000000000000000   0.000000000000000   0.000000000000000
  0.000000000000000  -1.000000000000000   0.000000000000000
  0.000000000000000   0.000000000000000  -1.000000000000000
  0.000000000000000   0.000000000000000   0.000000000000000
# Symm. op. 3
 -1.000000000000000   0.000000000000000   0.000000000000000
  0.000000000000000  -1.000000000000000   0.000000000000000
  0.000000000000000   0.000000000000000   1.000000000000000
  0.000000000000000   0.000000000000000   0.000000000000000
# Symm. op. 4
 -1.000000000000000   0.000000000000000   0.000000000000000
  0.000000000000000   1.000000000000000   0.000000000000000
  0.000000000000000   0.000000000000000  -1.000000000000000
  0.000000000000000   0.000000000000000   0.000000000000000
# Symm. op. 5
  0.000000000000000   1.000000000000000   0.000000000000000
 -1.000000000000000   0.000000000000000   0.000000000000000
  0.000000000000000   0.000000000000000  -1.000000000000000
  0.000000000000000   0.000000000000000   0.000000000000000
# Symm. op. 6
  0.000000000000000   0.000000000000000   1.000000000000000
  0.000000000000000  -1.000000000000000   0.000000000000000
 -1.000000000000000   0.000000000000000   0.000000000000000
  0.000000000000000   0.000000000000000   0.000000000000000
# Symm. op. 7
  0.000000000000000   1.000000000000000   0.000000000000000
  0.000000000000000   0.000000000000000   1.000000000000000
  1.000000000000000   0.000000000000000   0.000000000000000
  0.000000000000000   0.000000000000000   0.000000000000000
# Symm. op. 8
  0.000000000000000   0.000000000000000   1.000000000000000
  1.000000000000000   0.000000000000000   0.000000000000000
  0.000000000000000   1.000000000000000   0.000000000000000
  0.000000000000000   0.000000000000000   0.000000000000000
# Symm. op. 9
  0.000000000000000   0.000000000000000   1.000000000000000
 -1.000000000000000   0.000000000000000   0.000000000000000
  0.000000000000000  -1.000000000000000   0.000000000000000
  0.000000000000000   0.000000000000000   0.000000000000000
# Symm. op. 10
  0.000000000000000   1.000000000000000   0.000000000000000
  0.000000000000000   0.000000000000000  -1.000000000000000
 -1.000000000000000   0.000000000000000   0.000000000000000
  0.000000000000000   0.000000000000000   0.000000000000000
# Symm. op. 11
  0.000000000000000   1.000000000000000   0.000000000000000
  1.000000000000000   0.000000000000000   0.000000000000000
  0.000000000000000   0.000000000000000   1.000000000000000
  0.000000000000000   0.000000000000000   0.000000000000000
# Symm. op. 12
  1.000000000000000   0.000000000000000   0.000000000000000
  0.000000000000000   0.000000000000000  -1.000000000000000
  0.000000000000000  -1.000000000000000   0.000000000000000
  0.000000000000000   0.000000000000000   0.000000000000000
# Symm. op. 13
  1.000000000000000   0.000000000000000   0.000000000000000
  0.000000000000000   0.000000000000000   1.000000000000000
  0.000000000000000   1.000000000000000   0.000000000000000
  0.000000000000000   0.000000000000000   0.000000000000000
# Symm. op. 14
  0.000000000000000   0.000000000000000   1.000000000000000
  0.000000000000000   1.000000000000000   0.000000000000000
  1.000000000000000   0.000000000000000   0.000000000000000
  0.000000000000000   0.000000000000000   0.000000000000000
# Symm. op. 15
  0.000000000000000   0.000000000000000  -1.000000000000000
  1.000000000000000   0.000000000000000   0.000000000000000
  0.000000000000000  -1.000000000000000   0.000000000000000
  0.000000000000000   0.000000000000000   0.000000000000000
# Symm. op. 16
  0.000000000000000   0.000000000000000  -1.000000000000000
  0.000000000000000   1.000000000000000   0.000000000000000
 -1.000000000000000   0.000000000000000   0.000000000000000
  0.000000000000000   0.000000000000000   0.000000000000000
# Symm. op. 17
  0.000000000000000  -1.000000000000000   0.000000000000000
 -1.000000000000000   0.000000000000000   0.000000000000000
  0.000000000000000   0.000000000000000   1.000000000000000
  0.000000000000000   0.000000000000000   0.000000000000000
# Symm. op. 18
  0.000000000000000  -1.000000000000000   0.000000000000000
  1.000000000000000   0.000000000000000   0.000000000000000
  0.000000000000000   0.000000000000000  -1.000000000000000
  0.000000000000000   0.000000000000000   0.000000000000000
# Symm. op. 19
 -1.000000000000000   0.000000000000000   0.000000000000000
  0.000000000000000   0.000000000000000  -1.000000000000000
  0.000000000000000   1.000000000000000   0.000000000000000
  0.000000000000000   0.000000000000000   0.000000000000000
# Symm. op. 20
 -1.000000000000000   0.000000000000000   0.000000000000000
  0.000000000000000   0.000000000000000   1.000000000000000
  0.000000000000000  -1.000000000000000   0.000000000000000
  0.000000000000000   0.000000000000000   0.000000000000000
# Symm. op. 21
  0.000000000000000   0.000000000000000  -1.000000000000000
  0.000000000000000  -1.000000000000000   0.000000000000000
  1.000000000000000   0.000000000000000   0.000000000000000
  0.000000000000000   0.000000000000000   0.000000000000000
# Symm. op. 22
  0.000000000000000  -1.000000000000000   0.000000000000000
  0.000000000000000   0.000000000000000  -1.000000000000000
  1.000000000000000   0.000000000000000   0.000000000000000
  0.000000000000000   0.000000000000000   0.000000000000000
# Symm. op. 23
  0.000000000000000   0.000000000000000  -1.000000000000000
 -1.000000000000000   0.000000000000000   0.000000000000000
  0.000000000000000   1.000000000000000   0.000000000000000
  0.000000000000000   0.000000000000000   0.000000000000000
# Symm. op. 24
  0.000000000000000  -1.000000000000000   0.000000000000000
  0.000000000000000   0.000000000000000   1.000000000000000
 -1.000000000000000   0.000000000000000   0.000000000000000
  0.000000000000000   0.000000000000000   0.000000000000000
# Symm. op. 25
 -1.000000000000000   0.000000000000000   0.000000000000000
  0.000000000000000   1.000000000000000   0.000000000000000
  0.000000000000000   0.000000000000000   1.000000000000000
  0.250000000000000   0.250000000000000   0.250000000000000
# Symm. op. 26
 -1.000000000000000   0.000000000000000   0.000000000000000
  0.000000000000000  -1.000000000000000   0.000000000000000
  0.000000000000000   0.000000000000000  -1.000000000000000
  0.250000000000000   0.250000000000000   0.250000000000000
# Symm. op. 27
  1.000000000000000   0.000000000000000   0.000000000000000
  0.000000000000000   1.000000000000000   0.000000000000000
  0.000000000000000   0.000000000000000  -1.000000000000000
  0.250000000000000   0.250000000000000   0.250000000000000
# Symm. op. 28
  1.000000000000000   0.000000000000000   0.000000000000000
  0.000000000000000  -1.000000000000000   0.000000000000000
  0.000000000000000   0.000000000000000   1.000000000000000
  0.250000000000000   0.250000000000000   0.250000000000000
# Symm. op. 29
  0.000000000000000   0.000000000000000  -1.000000000000000
  0.000000000000000  -1.000000000000000   0.000000000000000
 -1.000000000000000   0.000000000000000   0.000000000000000
  0.250000000000000   0.250000000000000   0.250000000000000
# Symm. op. 30
  0.000000000000000   1.000000000000000   0.000000000000000
 -1.000000000000000   0.000000000000000   0.000000000000000
  0.000000000000000   0.000000000000000   1.000000000000000
  0.250000000000000   0.250000000000000   0.250000000000000
# Symm. op. 31
  1.000000000000000   0.000000000000000   0.000000000000000
  0.000000000000000   0.000000000000000   1.000000000000000
  0.000000000000000  -1.000000000000000   0.000000000000000
  0.250000000000000   0.250000000000000   0.250000000000000
# Symm. op. 32
  1.000000000000000   0.000000000000000   0.000000000000000
  0.000000000000000   0.000000000000000  -1.000000000000000
  0.000000000000000   1.000000000000000   0.000000000000000
  0.250000000000000   0.250000000000000   0.250000000000000
# Symm. op. 33
  0.000000000000000   0.000000000000000   1.000000000000000
  0.000000000000000   1.000000000000000   0.000000000000000
 -1.000000000000000   0.000000000000000   0.000000000000000
  0.250000000000000   0.250000000000000   0.250000000000000
# Symm. op. 34
  0.000000000000000   1.000000000000000   0.000000000000000
  0.000000000000000   0.000000000000000   1.000000000000000
 -1.000000000000000   0.000000000000000   0.000000000000000
  0.250000000000000   0.250000000000000   0.250000000000000
# Symm. op. 35
  0.000000000000000   0.000000000000000   1.000000000000000
  1.000000000000000   0.000000000000000   0.000000000000000
  0.000000000000000  -1.000000000000000   0.000000000000000
  0.250000000000000   0.250000000000000   0.250000000000000
# Symm. op. 36
  0.000000000000000   1.000000000000000   0.000000000000000
  0.000000000000000   0.000000000000000  -1.000000000000000
  1.000000000000000   0.000000000000000   0.000000000000000
  0.250000000000000   0.250000000000000   0.250000000000000
# Symm. op. 37
  0.000000000000000   0.000000000000000   1.000000000000000
 -1.000000000000000   0.000000000000000   0.000000000000000
  0.000000000000000   1.000000000000000   0.000000000000000
  0.250000000000000   0.250000000000000   0.250000000000000
# Symm. op. 38
  0.000000000000000   1.000000000000000   0.000000000000000
  1.000000000000000   0.000000000000000   0.000000000000000
  0.000000000000000   0.000000000000000  -1.000000000000000
  0.250000000000000   0.250000000000000   0.250000000000000
# Symm. op. 39
  0.000000000000000   0.000000000000000   1.000000000000000
  0.000000000000000  -1.000000000000000   0.000000000000000
  1.000000000000000   0.000000000000000   0.000000000000000
  0.250000000000000   0.250000000000000   0.250000000000000
# Symm. op. 40
  0.000000000000000  -1.000000000000000   0.000000000000000
  1.000000000000000   0.000000000000000   0.000000000000000
  0.000000000000000   0.000000000000000   1.000000000000000
  0.250000000000000   0.250000000000000   0.250000000000000
# Symm. op. 41
  0.000000000000000   0.000000000000000  -1.000000000000000
  0.000000000000000   1.000000000000000   0.000000000000000
  1.000000000000000   0.000000000000000   0.000000000000000
  0.250000000000000   0.250000000000000   0.250000000000000
# Symm. op. 42
  0.000000000000000  -1.000000000000000   0.000000000000000
  0.000000000000000   0.000000000000000  -1.000000000000000
 -1.000000000000000   0.000000000000000   0.000000000000000
  0.250000000000000   0.250000000000000   0.250000000000000
# Symm. op. 43
  0.000000000000000   0.000000000000000  -1.000000000000000
 -1.000000000000000   0.000000000000000   0.000000000000000
  0.000000000000000  -1.000000000000000   0.000000000000000
  0.250000000000000   0.250000000000000   0.250000000000000
# Symm. op. 44
  0.000000000000000   0.000000000000000  -1.000000000000000
  1.000000000000000   0.000000000000000   0.000000000000000
  0.000000000000000   1.000000000000000   0.000000000000000
  0.250000000000000   0.250000000000000   0.250000000000000
# Symm. op. 45
  0.000000000000000  -1.000000000000000   0.000000000000000
  0.000000000000000   0.000000000000000   1.000000000000000
  1.000000000000000   0.000000000000000   0.000000000000000
  0.250000000000000   0.250000000000000   0.250000000000000
# Symm. op. 46
  0.000000000000000  -1.000000000000000   0.000000000000000
 -1.000000000000000   0.000000000000000   0.000000000000000
  0.000000000000000   0.000000000000000  -1.000000000000000
  0.250000000000000   0.250000000000000   0.250000000000000
# Symm. op. 47
 -1.000000000000000   0.000000000000000   0.000000000000000
  0.000000000000000   0.000000000000000   1.000000000000000
  0.000000000000000   1.000000000000000   0.000000000000000
  0.250000000000000   0.250000000000000   0.250000000000000
# Symm. op. 48
 -1.000000000000000   0.000000000000000   0.000000000000000
  0.000000000000000   0.000000000000000  -1.000000000000000
  0.000000000000000  -1.000000000000000   0.000000000000000
  0.250000000000000   0.250000000000000   0.250000000000000
# Symm. op. 49
  1.000000000000000   0.000000000000000   0.000000000000000
  0.000000000000000   1.000000000000000   0.000000000000000
  0.000000000000000   0.000000000000000   1.000000000000000
  0.500000000000000   0.500000000000000   0.000000000000000
# Symm. op. 50
  1.000000000000000   0.000000000000000   0.000000000000000
  0.000000000000000   1.000000000000000   0.000000000000000
  0.000000000000000   0.000000000000000   1.000000000000000
  0.000000000000000   0.500000000000000   0.500000000000000
# Symm. op. 51
  1.000000000000000   0.000000000000000   0.000000000000000
  0.000000000000000   1.000000000000000   0.000000000000000
  0.000000000000000   0.000000000000000   1.000000000000000
  0.500000000000000   0.000000000000000   0.500000000000000
# Symm. op. 52
  1.000000000000000   0.000000000000000   0.000000000000000
  0.000000000000000  -1.000000000000000   0.000000000000000
  0.000000000000000   0.000000000000000  -1.000000000000000
  0.500000000000000   0.000000000000000   0.500000000000000
# Symm. op. 53
 -1.000000000000000   0.000000000000000   0.000000000000000
  0.000000000000000  -1.000000000000000   0.000000000000000
  0.000000000000000   0.000000000000000   1.000000000000000
  0.500000000000000   0.000000000000000   0.500000000000000
# Symm. op. 54
 -1.000000000000000   0.000000000000000   0.000000000000000
  0.000000000000000   1.000000000000000   0.000000000000000
  0.000000000000000   0.000000000000000  -1.000000000000000
  0.500000000000000   0.000000000000000   0.500000000000000
# Symm. op. 55
  1.000000000000000   0.000000000000000   0.000000000000000
  0.000000000000000  -1.000000000000000   0.000000000000000
  0.000000000000000   0.000000000000000  -1.000000000000000
  0.000000000000000   0.500000000000000   0.500000000000000
# Symm. op. 56
  1.000000000000000   0.000000000000000   0.000000000000000
  0.000000000000000  -1.000000000000000   0.000000000000000
  0.000000000000000   0.000000000000000  -1.000000000000000
  0.500000000000000   0.500000000000000   0.000000000000000
# Symm. op. 57
 -1.000000000000000   0.000000000000000   0.000000000000000
  0.000000000000000  -1.000000000000000   0.000000000000000
  0.000000000000000   0.000000000000000   1.000000000000000
  0.000000000000000   0.500000000000000   0.500000000000000
# Symm. op. 58
 -1.000000000000000   0.000000000000000   0.000000000000000
  0.000000000000000   1.000000000000000   0.000000000000000
  0.000000000000000   0.000000000000000  -1.000000000000000
  0.000000000000000   0.500000000000000   0.500000000000000
# Symm. op. 59
 -1.000000000000000   0.000000000000000   0.000000000000000
  0.000000000000000  -1.000000000000000   0.000000000000000
  0.000000000000000   0.000000000000000   1.000000000000000
  0.500000000000000   0.500000000000000   0.000000000000000
# Symm. op. 60
 -1.000000000000000   0.000000000000000   0.000000000000000
  0.000000000000000   1.000000000000000   0.000000000000000
  0.000000000000000   0.000000000000000  -1.000000000000000
  0.500000000000000   0.500000000000000   0.000000000000000
# Symm. op. 61
  0.000000000000000   1.000000000000000   0.000000000000000
 -1.000000000000000   0.000000000000000   0.000000000000000
  0.000000000000000   0.000000000000000  -1.000000000000000
  0.500000000000000   0.000000000000000   0.500000000000000
# Symm. op. 62
  0.000000000000000   0.000000000000000   1.000000000000000
  0.000000000000000  -1.000000000000000   0.000000000000000
 -1.000000000000000   0.000000000000000   0.000000000000000
  0.500000000000000   0.000000000000000   0.500000000000000
# Symm. op. 63
  0.000000000000000   1.000000000000000   0.000000000000000
  0.000000000000000   0.000000000000000   1.000000000000000
  1.000000000000000   0.000000000000000   0.000000000000000
  0.500000000000000   0.000000000000000   0.500000000000000
# Symm. op. 64
  0.000000000000000   0.000000000000000   1.000000000000000
  1.000000000000000   0.000000000000000   0.000000000000000
  0.000000000000000   1.000000000000000   0.000000000000000
  0.500000000000000   0.000000000000000   0.500000000000000
# Symm. op. 65
  0.000000000000000   0.000000000000000   1.000000000000000
 -1.000000000000000   0.000000000000000   0.000000000000000
  0.000000000000000  -1.000000000000000   0.000000000000000
  0.500000000000000   0.000000000000000   0.500000000000000
# Symm. op. 66
  0.000000000000000   1.000000000000000   0.000000000000000
  0.000000000000000   0.000000000000000  -1.000000000000000
 -1.000000000000000   0.000000000000000   0.000000000000000
  0.500000000000000   0.000000000000000   0.500000000000000
# Symm. op. 67
  0.000000000000000   1.000000000000000   0.000000000000000
  1.000000000000000   0.000000000000000   0.000000000000000
  0.000000000000000   0.000000000000000   1.000000000000000
  0.500000000000000   0.000000000000000   0.500000000000000
# Symm. op. 68
  1.000000000000000   0.000000000000000   0.000000000000000
  0.000000000000000   0.000000000000000  -1.000000000000000
  0.000000000000000  -1.000000000000000   0.000000000000000
  0.500000000000000   0.000000000000000   0.500000000000000
# Symm. op. 69
  0.000000000000000  -1.000000000000000   0.000000000000000
  0.000000000000000   0.000000000000000  -1.000000000000000
  1.000000000000000   0.000000000000000   0.000000000000000
  0.000000000000000   0.500000000000000   0.500000000000000
# Symm. op. 70
  0.000000000000000   0.000000000000000  -1.000000000000000
 -1.000000000000000   0.000000000000000   0.000000000000000
  0.000000000000000   1.000000000000000   0.000000000000000
  0.000000000000000   0.500000000000000   0.500000000000000
# Symm. op. 71
  0.000000000000000  -1.000000000000000   0.000000000000000
 -1.000000000000000   0.000000000000000   0.000000000000000
  0.000000000000000   0.000000000000000   1.000000000000000
  0.000000000000000   0.500000000000000   0.500000000000000
# Symm. op. 72
  0.000000000000000   0.000000000000000  -1.000000000000000
  0.000000000000000   1.000000000000000   0.000000000000000
 -1.000000000000000   0.000000000000000   0.000000000000000
  0.000000000000000   0.500000000000000   0.500000000000000
# Symm. op. 73
  0.000000000000000   0.000000000000000  -1.000000000000000
  0.000000000000000  -1.000000000000000   0.000000000000000
  1.000000000000000   0.000000000000000   0.000000000000000
  0.500000000000000   0.500000000000000   0.000000000000000
# Symm. op. 74
  0.000000000000000  -1.000000000000000   0.000000000000000
  0.000000000000000   0.000000000000000  -1.000000000000000
  1.000000000000000   0.000000000000000   0.000000000000000
  0.500000000000000   0.500000000000000   0.000000000000000
# Symm. op. 75
  0.000000000000000   0.000000000000000  -1.000000000000000
 -1.000000000000000   0.000000000000000   0.000000000000000
  0.000000000000000   1.000000000000000   0.000000000000000
  0.500000000000000   0.500000000000000   0.000000000000000
# Symm. op. 76
  0.000000000000000  -1.000000000000000   0.000000000000000
  0.000000000000000   0.000000000000000   1.000000000000000
 -1.000000000000000   0.000000000000000   0.000000000000000
  0.500000000000000   0.500000000000000   0.000000000000000
# Symm. op. 77
  0.000000000000000   0.000000000000000  -1.000000000000000
  1.000000000000000   0.000000000000000   0.000000000000000
  0.000000000000000  -1.000000000000000   0.000000000000000
  0.500000000000000   0.500000000000000   0.000000000000000
# Symm. op. 78
  0.000000000000000  -1.000000000000000   0.000000000000000
 -1.000000000000000   0.000000000000000   0.000000000000000
  0.000000000000000   0.000000000000000   1.000000000000000
  0.500000000000000   0.500000000000000   0.000000000000000
# Symm. op. 79
  0.000000000000000   0.000000000000000  -1.000000000000000
  0.000000000000000   1.000000000000000   0.000000000000000
 -1.000000000000000   0.000000000000000   0.000000000000000
  0.500000000000000   0.500000000000000   0.000000000000000
# Symm. op. 80
  0.000000000000000   0.000000000000000   1.000000000000000
  0.000000000000000   1.000000000000000   0.000000000000000
  1.000000000000000   0.000000000000000   0.000000000000000
  0.500000000000000   0.000000000000000   0.500000000000000
# Symm. op. 81
  0.000000000000000  -1.000000000000000   0.000000000000000
  1.000000000000000   0.000000000000000   0.000000000000000
  0.000000000000000   0.000000000000000  -1.000000000000000
  0.500000000000000   0.000000000000000   0.500000000000000
# Symm. op. 82
 -1.000000000000000   0.000000000000000   0.000000000000000
  0.000000000000000   0.000000000000000  -1.000000000000000
  0.000000000000000   1.000000000000000   0.000000000000000
  0.500000000000000   0.000000000000000   0.500000000000000
# Symm. op. 83
 -1.000000000000000   0.000000000000000   0.000000000000000
  0.000000000000000   0.000000000000000   1.000000000000000
  0.000000000000000  -1.000000000000000   0.000000000000000
  0.500000000000000   0.000000000000000   0.500000000000000
# Symm. op. 84
  0.000000000000000   0.000000000000000  -1.000000000000000
  0.000000000000000  -1.000000000000000   0.000000000000000
  1.000000000000000   0.000000000000000   0.000000000000000
  0.500000000000000   0.000000000000000   0.500000000000000
# Symm. op. 85
  0.000000000000000  -1.000000000000000   0.000000000000000
  0.000000000000000   0.000000000000000  -1.000000000000000
  1.000000000000000   0.000000000000000   0.000000000000000
  0.500000000000000   0.000000000000000   0.500000000000000
# Symm. op. 86
  0.000000000000000   0.000000000000000  -1.000000000000000
 -1.000000000000000   0.000000000000000   0.000000000000000
  0.000000000000000   1.000000000000000   0.000000000000000
  0.500000000000000   0.000000000000000   0.500000000000000
# Symm. op. 87
  0.000000000000000  -1.000000000000000   0.000000000000000
  0.000000000000000   0.000000000000000   1.000000000000000
 -1.000000000000000   0.000000000000000   0.000000000000000
  0.500000000000000   0.000000000000000   0.500000000000000
# Symm. op. 88
  0.000000000000000   0.000000000000000  -1.000000000000000
  1.000000000000000   0.000000000000000   0.000000000000000
  0.000000000000000  -1.000000000000000   0.000000000000000
  0.500000000000000   0.000000000000000   0.500000000000000
# Symm. op. 89
  1.000000000000000   0.000000000000000   0.000000000000000
  0.000000000000000   0.000000000000000   1.000000000000000
  0.000000000000000   1.000000000000000   0.000000000000000
  0.500000000000000   0.000000000000000   0.500000000000000
# Symm. op. 90
  0.000000000000000   1.000000000000000   0.000000000000000
 -1.000000000000000   0.000000000000000   0.000000000000000
  0.000000000000000   0.000000000000000  -1.000000000000000
  0.000000000000000   0.500000000000000   0.500000000000000
# Symm. op. 91
  0.000000000000000   0.000000000000000   1.000000000000000
  0.000000000000000  -1.000000000000000   0.000000000000000
 -1.000000000000000   0.000000000000000   0.000000000000000
  0.000000000000000   0.500000000000000   0.500000000000000
# Symm. op. 92
  0.000000000000000   1.000000000000000   0.000000000000000
  0.000000000000000   0.000000000000000   1.000000000000000
  1.000000000000000   0.000000000000000   0.000000000000000
  0.000000000000000   0.500000000000000   0.500000000000000
# Symm. op. 93
  0.000000000000000   0.000000000000000   1.000000000000000
  1.000000000000000   0.000000000000000   0.000000000000000
  0.000000000000000   1.000000000000000   0.000000000000000
  0.000000000000000   0.500000000000000   0.500000000000000
# Symm. op. 94
  0.000000000000000   0.000000000000000   1.000000000000000
 -1.000000000000000   0.000000000000000   0.000000000000000
  0.000000000000000  -1.000000000000000   0.000000000000000
  0.000000000000000   0.500000000000000   0.500000000000000
# Symm. op. 95
  0.000000000000000   1.000000000000000   0.000000000000000
  0.000000000000000   0.000000000000000  -1.000000000000000
 -1.000000000000000   0.000000000000000   0.000000000000000
  0.000000000000000   0.500000000000000   0.500000000000000
# Symm. op. 96
  0.000000000000000   1.000000000000000   0.000000000000000
  1.000000000000000   0.000000000000000   0.000000000000000
  0.000000000000000   0.000000000000000   1.000000000000000
  0.000000000000000   0.500000000000000   0.500000000000000
# Symm. op. 97
  1.000000000000000   0.000000000000000   0.000000000000000
  0.000000000000000   0.000000000000000  -1.000000000000000
  0.000000000000000  -1.000000000000000   0.000000000000000
  0.000000000000000   0.500000000000000   0.500000000000000
# Symm. op. 98
  0.000000000000000   1.000000000000000   0.000000000000000
 -1.000000000000000   0.000000000000000   0.000000000000000
  0.000000000000000   0.000000000000000  -1.000000000000000
  0.500000000000000   0.500000000000000   0.000000000000000
# Symm. op. 99
  0.000000000000000   0.000000000000000   1.000000000000000
  0.000000000000000  -1.000000000000000   0.000000000000000
 -1.000000000000000   0.000000000000000   0.000000000000000
  0.500000000000000   0.500000000000000   0.000000000000000
# Symm. op. 100
  0.000000000000000   1.000000000000000   0.000000000000000
  0.000000000000000   0.000000000000000   1.000000000000000
  1.000000000000000   0.000000000000000   0.000000000000000
  0.500000000000000   0.500000000000000   0.000000000000000
# Symm. op. 101
  0.000000000000000   0.000000000000000   1.000000000000000
  1.000000000000000   0.000000000000000   0.000000000000000
  0.000000000000000   1.000000000000000   0.000000000000000
  0.500000000000000   0.500000000000000   0.000000000000000
# Symm. op. 102
  0.000000000000000   0.000000000000000   1.000000000000000
 -1.000000000000000   0.000000000000000   0.000000000000000
  0.000000000000000  -1.000000000000000   0.000000000000000
  0.500000000000000   0.500000000000000   0.000000000000000
# Symm. op. 103
  0.000000000000000   1.000000000000000   0.000000000000000
  0.000000000000000   0.000000000000000  -1.000000000000000
 -1.000000000000000   0.000000000000000   0.000000000000000
  0.500000000000000   0.500000000000000   0.000000000000000
# Symm. op. 104
  0.000000000000000   1.000000000000000   0.000000000000000
  1.000000000000000   0.000000000000000   0.000000000000000
  0.000000000000000   0.000000000000000   1.000000000000000
  0.500000000000000   0.500000000000000   0.000000000000000
# Symm. op. 105
  1.000000000000000   0.000000000000000   0.000000000000000
  0.000000000000000   0.000000000000000  -1.000000000000000
  0.000000000000000  -1.000000000000000   0.000000000000000
  0.500000000000000   0.500000000000000   0.000000000000000
# Symm. op. 106
  0.000000000000000  -1.000000000000000   0.000000000000000
 -1.000000000000000   0.000000000000000   0.000000000000000
  0.000000000000000   0.000000000000000   1.000000000000000
  0.500000000000000   0.000000000000000   0.500000000000000
# Symm. op. 107
  0.000000000000000   0.000000000000000  -1.000000000000000
  0.000000000000000   1.000000000000000   0.000000000000000
 -1.000000000000000   0.000000000000000   0.000000000000000
  0.500000000000000   0.000000000000000   0.500000000000000
# Symm. op. 108
  1.000000000000000   0.000000000000000   0.000000000000000
  0.000000000000000   0.000000000000000   1.000000000000000
  0.000000000000000   1.000000000000000   0.000000000000000
  0.000000000000000   0.500000000000000   0.500000000000000
# Symm. op. 109
  0.000000000000000   0.000000000000000   1.000000000000000
  0.000000000000000   1.000000000000000   0.000000000000000
  1.000000000000000   0.000000000000000   0.000000000000000
  0.000000000000000   0.500000000000000   0.500000000000000
# Symm. op. 110
  0.000000000000000  -1.000000000000000   0.000000000000000
  0.000000000000000   0.000000000000000   1.000000000000000
 -1.000000000000000   0.000000000000000   0.000000000000000
  0.000000000000000   0.500000000000000   0.500000000000000
# Symm. op. 111
  0.000000000000000   0.000000000000000  -1.000000000000000
  1.000000000000000   0.000000000000000   0.000000000000000
  0.000000000000000  -1.000000000000000   0.000000000000000